73774
70 90 66 92 36 47 76 74 82 12 45 83 23 94 75 9 67 38 18 86 87 54 73 8 2 37 13 59 26 31 17 57 84 48 58 63 41 1 88 55 22 14 15 62 10 25 96 93 80 65 44 16 97 50 72 19 42 89 24 99 81 52 49 43 29 71 69 6 60 68 46 39 7 64 28 95 11 32 21 56 20 78 61 4 3 79 98 27 30 91 34 33 51 5 85 53 77 35 0 40 
